problems/csplib-prob031/RackConfiguration-models/noch/O2/lingeling/model_1-ilog-solution000001.eprime-solution
language ESSENCE' 1.0

letting model_Function1DPartial_Flags be [false, false, false, true, true; int(1..5)]
letting model_Function1DPartial_Values be [1, 1, 1, 1, 2; int(1..5)]
letting plugged_Function1DPartialR2_Flags be [true, true, true, true, true; int(1..5)]
letting plugged_Function1DPartialR2_Values_Occurrence be
        [[true, true, false, false; int(1..4)], [false, true, false, true; int(1..4)],
         [false, true, false, false; int(1..4)], [true, false, true, false; int(1..4)],
         [false, true, false, true; int(1..4)]; int(1..5)]
