problems/csplib-prob031/RackConfiguration-models/noch/O2/lingeling/model_1-ilog-solution000001.solution
language Essence 1.3

letting Rack be new type enum {Rack_1, Rack_2, Rack_3, Rack_4, Rack_5}
letting model be function(Rack_4 --> 1, Rack_5 --> 2)
letting plugged be function(Rack_1 --> {1, 2}, Rack_4 --> {1, 3}, Rack_3 --> {2}, Rack_5 --> {2, 4})
